NAME: tsp15_4
COMMENT: 15-tsp problem (Padberg/Rinaldi)
TYPE: TSP
DIMENSION: 15
EDGE_WEIGHT_TYPE : EUC_2D
NODE_COORD_SECTION
1 24 3
2 36 10
3 35 34
4 3 38
5 10 15
6 22 38
7 5 18
8 24 15
9 3 34
10 22 14
11 31 10
12 23 14
13 6 16
14 1 32
15 21 5
